nohup: ignoring input
miplib2017_binary-small
symmetric
./result/miplib2017/miplib2017_purebinary_solved.txt
original problem has 2025 variables (1800 bin, 0 int, 0 impl, 225 cont) and 230 constraints
10teams


miplib2017_binary-0
Number of variables 2025
Number of binary variables 1800
* Model status: sollimit
* Solving time: 4.635721
* number of sol :  1
* Model status: optimal
* Solving time: 9.957786
* number of sol :  1
original problem has 200 variables (200 bin, 0 int, 0 impl, 0 cont) and 17013 constraints
2club200v15p5scn


miplib2017_binary-0
Number of variables 200
Number of binary variables 200
* Model status: sollimit
* Solving time: 0.095662
* number of sol :  1
* Model status: nodelimit
* Solving time: 21.749163
* number of sol :  2
wrote problem to file /home/liudefen/projects/ML4LocalBranch_extend/data/generated_instances/miplib2017_binary/-small/transformedmodel/miplib2017_binary-0_transformed.cip
original problem has 200 variables (200 bin, 0 int, 0 impl, 0 cont) and 17013 constraints
-27.0
-27.0
original problem has 10772 variables (10771 bin, 0 int, 0 impl, 1 cont) and 12050 constraints
30_70_45_05_100


miplib2017_binary-1
Number of variables 10772
Number of binary variables 10771
* Model status: sollimit
* Solving time: 0.075583
* number of sol :  1
* Model status: nodelimit
* Solving time: 132.716014
* number of sol :  4
wrote problem to file /home/liudefen/projects/ML4LocalBranch_extend/data/generated_instances/miplib2017_binary/-small/transformedmodel/miplib2017_binary-1_transformed.cip
original problem has 10772 variables (10771 bin, 0 int, 0 impl, 1 cont) and 12050 constraints
12.0
12.0
original problem has 10976 variables (10975 bin, 0 int, 0 impl, 1 cont) and 12526 constraints
30_70_45_095_100


miplib2017_binary-2
Number of variables 10976
Number of binary variables 10975
* Model status: sollimit
* Solving time: 0.11071099999999999
* number of sol :  1
* Model status: optimal
* Solving time: 124.683225
* number of sol :  3
original problem has 10990 variables (10989 bin, 0 int, 0 impl, 1 cont) and 12471 constraints
30_70_45_095_98


miplib2017_binary-2
Number of variables 10990
Number of binary variables 10989
* Model status: sollimit
* Solving time: 0.09422599999999999
* number of sol :  1
* Model status: optimal
* Solving time: 99.957244
* number of sol :  4
original problem has 12675 variables (12675 bin, 0 int, 0 impl, 0 cont) and 11893 constraints
ab51-40-100


miplib2017_binary-2
Number of variables 12675
Number of binary variables 12675
* Model status: sollimit
* Solving time: 2.216622
* number of sol :  1
* Model status: nodelimit
* Solving time: 11.148271
* number of sol :  7
wrote problem to file /home/liudefen/projects/ML4LocalBranch_extend/data/generated_instances/miplib2017_binary/-small/transformedmodel/miplib2017_binary-2_transformed.cip
original problem has 12675 variables (12675 bin, 0 int, 0 impl, 0 cont) and 11893 constraints
-8931557659.0
-8931557659.0
original problem has 12812 variables (12812 bin, 0 int, 0 impl, 0 cont) and 12092 constraints
ab67-40-100


miplib2017_binary-3
Number of variables 12812
Number of binary variables 12812
* Model status: sollimit
* Solving time: 2.292686
* number of sol :  1
* Model status: nodelimit
* Solving time: 11.716851
* number of sol :  2
wrote problem to file /home/liudefen/projects/ML4LocalBranch_extend/data/generated_instances/miplib2017_binary/-small/transformedmodel/miplib2017_binary-3_transformed.cip
original problem has 12812 variables (12812 bin, 0 int, 0 impl, 0 cont) and 12092 constraints
-2135573378.0
-2135573378.0
original problem has 12622 variables (12622 bin, 0 int, 0 impl, 0 cont) and 11911 constraints
ab69-40-100


miplib2017_binary-4
Number of variables 12622
Number of binary variables 12622
* Model status: sollimit
* Solving time: 2.307028
* number of sol :  1
* Model status: nodelimit
* Solving time: 5.119687
* number of sol :  1
wrote problem to file /home/liudefen/projects/ML4LocalBranch_extend/data/generated_instances/miplib2017_binary/-small/transformedmodel/miplib2017_binary-4_transformed.cip
original problem has 12622 variables (12622 bin, 0 int, 0 impl, 0 cont) and 11911 constraints
0.0
0.0
original problem has 6689 variables (6689 bin, 0 int, 0 impl, 0 cont) and 6380 constraints
ab71-20-100


miplib2017_binary-5
Number of variables 6689
Number of binary variables 6689
* Model status: sollimit
* Solving time: 1.286738
* number of sol :  1
* Model status: nodelimit
* Solving time: 3.168883
* number of sol :  1
wrote problem to file /home/liudefen/projects/ML4LocalBranch_extend/data/generated_instances/miplib2017_binary/-small/transformedmodel/miplib2017_binary-5_transformed.cip
original problem has 6689 variables (6689 bin, 0 int, 0 impl, 0 cont) and 6380 constraints
0.0
0.0
original problem has 12370 variables (12370 bin, 0 int, 0 impl, 0 cont) and 11671 constraints
ab72-40-100


miplib2017_binary-6
Number of variables 12370
Number of binary variables 12370
* Model status: sollimit
* Solving time: 2.273393
* number of sol :  1
* Model status: nodelimit
* Solving time: 6.265824
* number of sol :  1
wrote problem to file /home/liudefen/projects/ML4LocalBranch_extend/data/generated_instances/miplib2017_binary/-small/transformedmodel/miplib2017_binary-6_transformed.cip
original problem has 12370 variables (12370 bin, 0 int, 0 impl, 0 cont) and 11671 constraints
0.0
0.0
original problem has 168974 variables (168974 bin, 0 int, 0 impl, 0 cont) and 167661 constraints
academictimetablebig


miplib2017_binary-7
Number of variables 168974
Number of binary variables 168974
* Model status: timelimit
* Solving time: 7200.022507
* number of sol :  0
* Model status: timelimit
* Solving time: 7200.016708
* number of sol :  0
original problem has 28926 variables (28926 bin, 0 int, 0 impl, 0 cont) and 23294 constraints
academictimetablesmall


miplib2017_binary-7
Number of variables 28926
Number of binary variables 28926
* Model status: timelimit
* Solving time: 7200.002675
* number of sol :  0
* Model status: timelimit
* Solving time: 7200.010521
* number of sol :  0
original problem has 1620 variables (1620 bin, 0 int, 0 impl, 0 cont) and 2520 constraints
acc-tight2


miplib2017_binary-7
Number of variables 1620
Number of binary variables 1620
* Model status: optimal
* Solving time: 21.428196
* number of sol :  1
* Model status: optimal
* Solving time: 17.701135999999998
* number of sol :  1
original problem has 1620 variables (1620 bin, 0 int, 0 impl, 0 cont) and 3285 constraints
acc-tight4


miplib2017_binary-7
Number of variables 1620
Number of binary variables 1620
* Model status: optimal
* Solving time: 317.789705
* number of sol :  1
* Model status: optimal
* Solving time: 161.059411
* number of sol :  1
original problem has 1339 variables (1339 bin, 0 int, 0 impl, 0 cont) and 3052 constraints
acc-tight5


miplib2017_binary-7
Number of variables 1339
Number of binary variables 1339
* Model status: optimal
* Solving time: 198.240514
* number of sol :  1
* Model status: optimal
* Solving time: 211.085089
* number of sol :  2
original problem has 10757 variables (10757 bin, 0 int, 0 impl, 0 cont) and 124 constraints
air03


miplib2017_binary-7
Number of variables 10757
Number of binary variables 10757
* Model status: sollimit
* Solving time: 0.16580899999999998
* number of sol :  1
* Model status: optimal
* Solving time: 1.373532
* number of sol :  3
solution value 0 violates bounds of <t_CL000693>[1,1] by 1
original problem has 8904 variables (8904 bin, 0 int, 0 impl, 0 cont) and 823 constraints
air04


miplib2017_binary-7
Number of variables 8904
Number of binary variables 8904
* Model status: sollimit
* Solving time: 33.098079
* number of sol :  1
* Model status: sollimit
* Solving time: 61.585902
* number of sol :  2
wrote problem to file /home/liudefen/projects/ML4LocalBranch_extend/data/generated_instances/miplib2017_binary/-small/transformedmodel/miplib2017_binary-7_transformed.cip
original problem has 8904 variables (8904 bin, 0 int, 0 impl, 0 cont) and 1069 constraints
56212.0
56212.0
original problem has 7195 variables (7195 bin, 0 int, 0 impl, 0 cont) and 426 constraints
air05


miplib2017_binary-8
Number of variables 7195
Number of binary variables 7195
* Model status: sollimit
* Solving time: 17.12224
* number of sol :  1
* Model status: sollimit
* Solving time: 37.384155
* number of sol :  2
wrote problem to file /home/liudefen/projects/ML4LocalBranch_extend/data/generated_instances/miplib2017_binary/-small/transformedmodel/miplib2017_binary-8_transformed.cip
original problem has 7195 variables (7195 bin, 0 int, 0 impl, 0 cont) and 714 constraints
27583.0
27583.0
original problem has 3283 variables (3283 bin, 0 int, 0 impl, 0 cont) and 1038 constraints
app2-1


miplib2017_binary-9
Number of variables 3283
Number of binary variables 3283
* Model status: sollimit
* Solving time: 0.045217
* number of sol :  1
* Model status: nodelimit
* Solving time: 1.279469
* number of sol :  100
wrote problem to file /home/liudefen/projects/ML4LocalBranch_extend/data/generated_instances/miplib2017_binary/-small/transformedmodel/miplib2017_binary-9_transformed.cip
original problem has 3283 variables (3283 bin, 0 int, 0 impl, 0 cont) and 1038 constraints
9647125.0
9647125.0
original problem has 1226 variables (1226 bin, 0 int, 0 impl, 0 cont) and 335 constraints
app2-2


miplib2017_binary-10
Number of variables 1226
Number of binary variables 1226
* Model status: sollimit
* Solving time: 0.016557
* number of sol :  1
* Model status: nodelimit
* Solving time: 0.200836
* number of sol :  100
wrote problem to file /home/liudefen/projects/ML4LocalBranch_extend/data/generated_instances/miplib2017_binary/-small/transformedmodel/miplib2017_binary-10_transformed.cip
original problem has 1226 variables (1226 bin, 0 int, 0 impl, 0 cont) and 335 constraints
53107625.0
53107625.0
original problem has 61152 variables (61152 bin, 0 int, 0 impl, 0 cont) and 60680 constraints
bab1


miplib2017_binary-11
Number of variables 61152
Number of binary variables 61152
* Model status: sollimit
* Solving time: 1385.427266
* number of sol :  1
* Model status: sollimit
* Solving time: 1291.921183
* number of sol :  2
wrote problem to file /home/liudefen/projects/ML4LocalBranch_extend/data/generated_instances/miplib2017_binary/-small/transformedmodel/miplib2017_binary-11_transformed.cip
original problem has 61152 variables (61152 bin, 0 int, 0 impl, 0 cont) and 22259 constraints
-211283.3195
-211283.3195
original problem has 147912 variables (147912 bin, 0 int, 0 impl, 0 cont) and 17245 constraints
bab2


miplib2017_binary-12
Number of variables 147912
Number of binary variables 147912
* Model status: sollimit
* Solving time: 4111.906914
* number of sol :  2
* Model status: sollimit
* Solving time: 5877.118572
* number of sol :  2
wrote problem to file /home/liudefen/projects/ML4LocalBranch_extend/data/generated_instances/miplib2017_binary/-small/transformedmodel/miplib2017_binary-12_transformed.cip
original problem has 147912 variables (147912 bin, 0 int, 0 impl, 0 cont) and 17039 constraints
-353740.15870000183
-353740.15870000183
original problem has 21600 variables (21600 bin, 0 int, 0 impl, 0 cont) and 4964 constraints
bab5


miplib2017_binary-13
Number of variables 21600
Number of binary variables 21600
* Model status: sollimit
* Solving time: 326.992621
* number of sol :  1
* Model status: sollimit
* Solving time: 254.829867
* number of sol :  2
wrote problem to file /home/liudefen/projects/ML4LocalBranch_extend/data/generated_instances/miplib2017_binary/-small/transformedmodel/miplib2017_binary-13_transformed.cip
original problem has 21600 variables (21600 bin, 0 int, 0 impl, 0 cont) and 5249 constraints
-103970.62930000006
-103970.62930000006
original problem has 114240 variables (114240 bin, 0 int, 0 impl, 0 cont) and 29904 constraints
bab6


miplib2017_binary-14
Number of variables 114240
Number of binary variables 114240
